c File: instances/28_0.05_1.col
c
c Description: Random graph of size 28 vertices and P(0.05) of edges between any two vertices.
p col 28 378
e 1 7
e 1 8
e 2 24
e 2 26
e 4 13
e 4 24
e 5 10
e 5 21
e 5 22
e 6 14
e 7 18
e 8 14
e 8 26
e 9 16
e 9 28
e 10 21
e 10 28
e 11 16
e 15 25
e 27 28